(set-option :precision 0.01)
(set-logic QF_NRA)
(declare-fun ua () Real)
(declare-fun ui () Real)
(declare-fun uj () Real)
(declare-fun uk () Real)
(declare-fun ux () Real)
(declare-fun uy () Real)
(declare-fun uz () Real)
(declare-fun la () Real)
(declare-fun li () Real)
(declare-fun lj () Real)
(declare-fun lk () Real)
(declare-fun lx () Real)
(declare-fun ly () Real)
(declare-fun lz () Real)
(declare-fun ea () Real)
(declare-fun ei () Real)
(declare-fun ej () Real)
(declare-fun ek () Real)
(declare-fun x () Real)
(declare-fun y () Real)
(declare-fun z () Real)
(declare-fun ba () Real)
(declare-fun bi () Real)
(declare-fun bj () Real)
(declare-fun bk () Real)
(declare-fun bx () Real)
(declare-fun by () Real)
(declare-fun bz () Real)
(declare-fun uca () Real)
(declare-fun uci () Real)
(declare-fun ucj () Real)
(declare-fun uck () Real)
(declare-fun ucx () Real)
(declare-fun ucy () Real)
(declare-fun ucz () Real)
(declare-fun ca () Real)
(declare-fun ci () Real)
(declare-fun cj () Real)
(declare-fun ck () Real)
(declare-fun cx () Real)
(declare-fun cy () Real)
(declare-fun cz () Real)
(declare-fun alpha () Real)
(declare-fun beta () Real)
(declare-fun gamma () Real)
(assert ( = ( + ( ^ uk 2 ) ( ^ uj 2 ) ( ^ ui 2 ) ( ^ ua 2 ) ) 1.0 ) )
(assert ( >= ua -1.0 ) )
(assert ( <= ua 1.0 ) )
(assert ( >= ui -1.0 ) )
(assert ( <= ui 1.0 ) )
(assert ( >= uj -1.0 ) )
(assert ( <= uj 1.0 ) )
(assert ( >= uk -1.0 ) )
(assert ( <= uk 1.0 ) )
(assert ( >= ux -0.5 ) )
(assert ( <= ux 0.5 ) )
(assert ( >= uy -0.5 ) )
(assert ( <= uy 0.5 ) )
(assert ( >= uz -0.5 ) )
(assert ( <= uz 0.5 ) )
(assert ( = ( + ( ^ lk 2 ) ( ^ lj 2 ) ( ^ li 2 ) ( ^ la 2 ) ) 1.0 ) )
(assert ( >= la -1.0 ) )
(assert ( <= la 1.0 ) )
(assert ( >= li -1.0 ) )
(assert ( <= li 1.0 ) )
(assert ( >= lj -1.0 ) )
(assert ( <= lj 1.0 ) )
(assert ( >= lk -1.0 ) )
(assert ( <= lk 1.0 ) )
(assert ( >= lx -0.5 ) )
(assert ( <= lx 0.5 ) )
(assert ( >= ly -0.5 ) )
(assert ( <= ly 0.5 ) )
(assert ( >= lz -0.5 ) )
(assert ( <= lz 0.5 ) )
(assert ( = ( + ( ^ ek 2 ) ( ^ ej 2 ) ( ^ ei 2 ) ( ^ ea 2 ) ) 1.0 ) )
(assert ( >= ea -1.0 ) )
(assert ( <= ea 1.0 ) )
(assert ( >= ei -1.0 ) )
(assert ( <= ei 1.0 ) )
(assert ( >= ej -1.0 ) )
(assert ( <= ej 1.0 ) )
(assert ( >= ek -1.0 ) )
(assert ( <= ek 1.0 ) )
(assert ( >= x -0.5 ) )
(assert ( <= x 0.5 ) )
(assert ( >= y -0.5 ) )
(assert ( <= y 0.5 ) )
(assert ( >= z -0.5 ) )
(assert ( <= z 0.5 ) )
(assert ( = ( + ( ^ bk 2 ) ( ^ bj 2 ) ( ^ bi 2 ) ( ^ ba 2 ) ) 1.0 ) )
(assert ( >= ba -1.0 ) )
(assert ( <= ba 1.0 ) )
(assert ( >= bi -1.0 ) )
(assert ( <= bi 1.0 ) )
(assert ( >= bj -1.0 ) )
(assert ( <= bj 1.0 ) )
(assert ( >= bk -1.0 ) )
(assert ( <= bk 1.0 ) )
(assert ( >= bx -0.5 ) )
(assert ( <= bx 0.5 ) )
(assert ( >= by -0.5 ) )
(assert ( <= by 0.5 ) )
(assert ( >= bz -0.5 ) )
(assert ( <= bz 0.5 ) )
(assert ( = ( + ( ^ uck 2 ) ( ^ ucj 2 ) ( ^ uci 2 ) ( ^ uca 2 ) ) 1.0 ) )
(assert ( >= uca -1.0 ) )
(assert ( <= uca 1.0 ) )
(assert ( >= uci -1.0 ) )
(assert ( <= uci 1.0 ) )
(assert ( >= ucj -1.0 ) )
(assert ( <= ucj 1.0 ) )
(assert ( >= uck -1.0 ) )
(assert ( <= uck 1.0 ) )
(assert ( >= ucx -0.5 ) )
(assert ( <= ucx 0.5 ) )
(assert ( >= ucy -0.5 ) )
(assert ( <= ucy 0.5 ) )
(assert ( >= ucz -0.5 ) )
(assert ( <= ucz 0.5 ) )
(assert ( = ( + ( ^ ck 2 ) ( ^ cj 2 ) ( ^ ci 2 ) ( ^ ca 2 ) ) 1.0 ) )
(assert ( >= ca -1.0 ) )
(assert ( <= ca 1.0 ) )
(assert ( >= ci -1.0 ) )
(assert ( <= ci 1.0 ) )
(assert ( >= cj -1.0 ) )
(assert ( <= cj 1.0 ) )
(assert ( >= ck -1.0 ) )
(assert ( <= ck 1.0 ) )
(assert ( >= cx -0.5 ) )
(assert ( <= cx 0.5 ) )
(assert ( >= cy -0.5 ) )
(assert ( <= cy 0.5 ) )
(assert ( >= cz -0.5 ) )
(assert ( <= cz 0.5 ) )
(assert ( >= alpha -3.15 ) )
(assert ( <= alpha 3.15 ) )
(assert ( >= beta -3.15 ) )
(assert ( <= beta 3.15 ) )
(assert ( >= gamma -3.15 ) )
(assert ( <= gamma 3.15 ) )
(assert ( = 0.0 ( * 1000.0 bx ) ) )
(assert ( = 0.0 ( * 1000.0 by ) ) )
(assert ( = 0.0 ( * 1000.0 bz ) ) )
(assert ( = ( cos ( * 0.5 gamma ) ) ba ) )
(assert ( = 0.0 bi ) )
(assert ( = 0.0 bj ) )
(assert ( = ( sin ( * 0.5 gamma ) ) bk ) )
(assert ( = ( * 1000.0 bx ) ( * 1000.0 ux ) ) )
(assert ( = ( * 1000.0 by ) ( * 1000.0 uy ) ) )
(assert ( = ( * 1000.0 bz ) ( * 1000.0 uz ) ) )
(assert ( = ( + ( * ( cos ( * 0.5 alpha ) ) ba ) ( - ( * 1.0 ( sin ( * 0.5 alpha ) ) bj ) ) ) ua ) )
(assert ( = ( + ( * ( cos ( * 0.5 alpha ) ) bi ) ( - ( * 1.0 ( sin ( * 0.5 alpha ) ) bk ) ) ) ui ) )
(assert ( = ( + ( * ( cos ( * 0.5 alpha ) ) bj ) ( * ( sin ( * 0.5 alpha ) ) ba ) ) uj ) )
(assert ( = ( + ( * ( cos ( * 0.5 alpha ) ) bk ) ( * ( sin ( * 0.5 alpha ) ) bi ) ) uk ) )
(assert ( = ( * 1000.0 bx ) ( * 1000.0 cx ) ) )
(assert ( = ( * 1000.0 by ) ( * 1000.0 cy ) ) )
(assert ( = ( * 1000.0 bz ) ( * 1000.0 cz ) ) )
(assert ( = ( + ( * ba ( cos ( * 0.5 beta ) ) ) ( - ( * 1.0 ( sin ( * 0.5 beta ) ) bj ) ) ) ca ) )
(assert ( = ( + ( * ( cos ( * 0.5 beta ) ) bi ) ( - ( * 1.0 ( sin ( * 0.5 beta ) ) bk ) ) ) ci ) )
(assert ( = ( + ( * ( cos ( * 0.5 beta ) ) bj ) ( * ba ( sin ( * 0.5 beta ) ) ) ) cj ) )
(assert ( = ( + ( * ( cos ( * 0.5 beta ) ) bk ) ( * ( sin ( * 0.5 beta ) ) bi ) ) ck ) )
(assert ( = ( + ( * 1000.0 cx ) ( * 50.0 ( ^ ck 2 ) ) ( * 50.0 ( ^ cj 2 ) ) ( - ( * 50.0 ( ^ ci 2 ) ) ) ( - ( * 50.0 ( ^ ca 2 ) ) ) ) ( * 1000.0 ucx ) ) )
(assert ( = ( + ( * 1000.0 cy ) ( - ( * 100.0 ca ck ) ) ( - ( * 100.0 ci cj ) ) ) ( * 1000.0 ucy ) ) )
(assert ( = ( + ( * 1000.0 cz ) ( - ( * 100.0 ci ck ) ) ( * 100.0 ca cj ) ) ( * 1000.0 ucz ) ) )
(assert ( = ( + ( * 2.0 ci cj ) ( - ( * 2.0 ca ck ) ) ) ( + ( * 2.0 uci ucj ) ( - ( * 2.0 uca uck ) ) ) ) )
(assert ( = ( + ( - ( * 1.0 ( ^ ck 2 ) ) ) ( ^ cj 2 ) ( - ( * 1.0 ( ^ ci 2 ) ) ) ( ^ ca 2 ) ) ( + ( - ( * 1.0 ( ^ uck 2 ) ) ) ( ^ ucj 2 ) ( - ( * 1.0 ( ^ uci 2 ) ) ) ( ^ uca 2 ) ) ) )
(assert ( = ( + ( * 2.0 cj ck ) ( * 2.0 ca ci ) ) ( + ( * 2.0 ucj uck ) ( * 2.0 uca uci ) ) ) )
(assert ( = ( + ( * 1000.0 ux ) ( - ( * 148.0 ( ^ uk 2 ) ) ) ( - ( * 148.0 ( ^ uj 2 ) ) ) ( * 148.0 ( ^ ui 2 ) ) ( * 148.0 ( ^ ua 2 ) ) ) ( * 1000.0 lx ) ) )
(assert ( = ( + ( * 1000.0 uy ) ( * 296.0 ua uk ) ( * 296.0 ui uj ) ) ( * 1000.0 ly ) ) )
(assert ( = ( + ( * 1000.0 uz ) ( * 296.0 ui uk ) ( - ( * 296.0 ua uj ) ) ) ( * 1000.0 lz ) ) )
(assert ( = ( + ( * 2.0 ui uj ) ( - ( * 2.0 ua uk ) ) ) ( + ( * 2.0 li lj ) ( - ( * 2.0 la lk ) ) ) ) )
(assert ( = ( + ( - ( * 1.0 ( ^ uk 2 ) ) ) ( ^ uj 2 ) ( - ( * 1.0 ( ^ ui 2 ) ) ) ( ^ ua 2 ) ) ( + ( - ( * 1.0 ( ^ lk 2 ) ) ) ( ^ lj 2 ) ( - ( * 1.0 ( ^ li 2 ) ) ) ( ^ la 2 ) ) ) )
(assert ( = ( + ( * 2.0 uj uk ) ( * 2.0 ua ui ) ) ( + ( * 2.0 lj lk ) ( * 2.0 la li ) ) ) )
(assert ( = ( + ( * 1000.0 ucx ) ( - ( * 148.0 ( ^ uck 2 ) ) ) ( - ( * 148.0 ( ^ ucj 2 ) ) ) ( * 148.0 ( ^ uci 2 ) ) ( * 148.0 ( ^ uca 2 ) ) ) ( + ( * 1000.0 lx ) ( * 50.0 ( ^ lk 2 ) ) ( * 50.0 ( ^ lj 2 ) ) ( - ( * 50.0 ( ^ li 2 ) ) ) ( - ( * 50.0 ( ^ la 2 ) ) ) ) ) )
(assert ( = ( + ( * 1000.0 ucy ) ( * 296.0 uca uck ) ( * 296.0 uci ucj ) ) ( + ( * 1000.0 ly ) ( - ( * 100.0 la lk ) ) ( - ( * 100.0 li lj ) ) ) ) )
(assert ( = ( + ( * 1000.0 ucz ) ( * 296.0 uci uck ) ( - ( * 296.0 uca ucj ) ) ) ( + ( * 1000.0 lz ) ( - ( * 100.0 li lk ) ) ( * 100.0 la lj ) ) ) )
(assert ( = ( + ( * 2.0 uci ucj ) ( - ( * 2.0 uca uck ) ) ) ( + ( * 2.0 li lj ) ( - ( * 2.0 la lk ) ) ) ) )
(assert ( = ( + ( - ( * 1.0 ( ^ uck 2 ) ) ) ( ^ ucj 2 ) ( - ( * 1.0 ( ^ uci 2 ) ) ) ( ^ uca 2 ) ) ( + ( - ( * 1.0 ( ^ lk 2 ) ) ) ( ^ lj 2 ) ( - ( * 1.0 ( ^ li 2 ) ) ) ( ^ la 2 ) ) ) )
(assert ( = ( + ( * 2.0 ucj uck ) ( * 2.0 uca uci ) ) ( + ( * 2.0 lj lk ) ( * 2.0 la li ) ) ) )
(assert ( = ( + ( * 1000.0 lx ) ( - ( * 160.0 ( ^ lk 2 ) ) ) ( - ( * 160.0 ( ^ lj 2 ) ) ) ( * 160.0 ( ^ li 2 ) ) ( * 160.0 ( ^ la 2 ) ) ) ( * 1000.0 x ) ) )
(assert ( = ( + ( * 1000.0 ly ) ( * 320.0 la lk ) ( * 320.0 li lj ) ) ( * 1000.0 y ) ) )
(assert ( = ( + ( * 1000.0 lz ) ( * 320.0 li lk ) ( - ( * 320.0 la lj ) ) ) ( * 1000.0 z ) ) )
(assert ( = la ea ) )
(assert ( = li ei ) )
(assert ( = lj ej ) )
(assert ( = lk ek ) )
(check-sat)
(exit)